JOBS = 1..3;
MACHINES = 1..6;
SPEED = 3;
time = array3d(JOBS,MACHINES,1..SPEED,[163,40,29,122,30,22,192,47,34,247,60,44,239,58,43,146,35,26,183,44,32,94,23,17,203,49,36,49,12,8,191,46,34,156,38,28,63,15,11,163,39,29,117,28,21,149,36,26,125,30,22,208,50,37]);
energy = array3d(JOBS,MACHINES,1..SPEED,[19,67,74,29,74,80,14,62,71,8,54,64,9,55,65,23,70,77,16,64,72,39,79,84,13,61,69,61,88,92,14,63,71,21,68,75,53,86,89,19,67,74,31,75,81,22,69,77,28,74,80,12,60,69]);
precedence = array2d(JOBS,MACHINES,[0,2,5,4,1,3,2,5,0,1,3,4,5,0,4,3,2,1]);
ME = 1;
TE = 319;
st_old = array2d(JOBS,MACHINES,[0,221,564,504,163,343,252,517,0,203,435,489,548,0,520,355,230,163]);
SpeedScaling = array2d(JOBS,MACHINES,[1,1,2,2,2,1,1,1,1,1,2,3,1,1,2,1,1,2]);
